(set-logic ALL)
(set-option :produce-models true)
(declare-sort BoundSet 0)
(declare-sort UnboundSet 0)
(set-option :finite-model-find true)
(declare-fun IsInPicture (BoundSet BoundSet) Bool)
(declare-fun IsOutside (BoundSet) Bool)
(assert (not (=> (exists ((a BoundSet)) (exists ((b BoundSet)) (IsInPicture a b))) (exists ((c BoundSet)) (IsOutside c)))))
(check-sat)
(get-model)